234236
234236
234236
234236
231524
231230
225865
225865
225865
225865
221794
221794
221794
217370
217298
217298
217298
215916
214751
213689
213689
212524
212524
211172
210265
209555
209555
209387
209387
209304
203432
201630
201630
201630
201630
201630
201630
198881
198881
196801
196801
196801
196801
196801
196801
196801
196801
196801
196801
196801
195345
195345
195345
195130
195130
194702
194702
194552
194271
194271
194271
191870
191837
191837
191837
191837
191837
191316
191316
191316
191316
189609
189609
189609
189609
189609
189267
189267
189062
189062
188158
188158
188158
186315
186315
186315
186315
186315
186315
186315
186315
186315
185912
185912
185912
185912
185912
185563
185563
185528
